NAME : mtspf
TYPE : ATSP
DIMENSION : 11
EDGE_WEIGHT_TYPE : EXPLICIT
EDGE_WEIGHT_FORMAT : FULL_MATRIX
EDGE_WEIGHT_SECTION
99999 -99999 23 0 23 30 0 18 40 0 0 
26 99999 -99999 0 37 52 99999 8 28 99999 99999 
25 0 99999 -99999 26 41 0 19 17 0 0 
31 99999 12 99999 -99999 33 99999 23 11 0 99999 
23 0 28 0 99999 -99999 0 33 29 0 0 
30 0 43 0 17 99999 -99999 46 44 0 0 
24 0 11 99999 37 50 99999 -99999 28 99999 99999 
18 0 19 0 31 44 0 99999 34 99999 0 
42 0 19 0 29 44 0 34 99999 0 0 
45 99999 24 99999 26 39 99999 39 7 99999 0 
-99999 99999 31 99999 31 30 0 18 46 99999 99999 
EOF
